(set-info :origin "SVCOMP13 benchmarks generated by Arie Gurfinkel")
(set-info :status unsat)
(set-logic HORN)
(declare-fun cp-rel-entry () Bool)
(declare-fun cp-rel-bb1.i.i (Real Real Real Real) Bool)
(declare-fun cp-rel-bb2.i.i35.i.i () Bool)
(assert |cp-rel-entry|)
(assert (forall ((?A Real) (?B Real) (?C Real) (?D Real) (?E Bool) )(let (($x387165 (and |cp-rel-entry| (<= ?D 1.0) (>= ?C 0.0) (<= ?C 0.0) (>= ?B 0.0) (<= ?B 0.0) (>= ?A 1.0) (<= ?A 1.0) (= ?E true) (>= ?D 1.0))))
(=> $x387165 (|cp-rel-bb1.i.i| ?A ?B ?C ?D))))
)
(assert (forall ((?A Real) (?B Real) (?C Real) (?D Real) (?E Real) (?F Real) (?G Real) (?H Real) (?I Bool) (?J Bool) (?K Bool) (?L Bool) (?M Bool) (?N Bool) (?O Real) (?P Real) (?Q Bool) (?R Bool) (?S Bool) (?T Bool) (?U Bool) (?V Bool) (?W Real) (?X Real) (?Y Bool) (?Z Bool) (?A1 Bool) (?B1 Bool) (?C1 Bool) (?D1 Bool) (?E1 Bool) (?F1 Real) (?G1 Bool) (?H1 Bool) (?I1 Bool) (?J1 Bool) (?K1 Bool) (?L1 Bool) (?M1 Real) (?N1 Real) (?O1 Bool) (?P1 Bool) (?Q1 Bool) (?R1 Bool) (?S1 Bool) (?T1 Bool) (?U1 Bool) (?V1 Bool) (?W1 Bool) (?X1 Bool) (?Y1 Bool) (?Z1 Bool) (?A2 Bool) (?B2 Real) (?C2 Real) (?D2 Real) (?E2 Real) (?F2 Bool) (?G2 Bool) (?H2 Bool) (?I2 Bool) (?J2 Bool) (?K2 Real) (?L2 Bool) (?M2 Real) (?N2 Real) (?O2 Bool) (?P2 Real) (?Q2 Real) (?R2 Bool) (?S2 Real) (?T2 Bool) (?U2 Bool) (?V2 Bool) (?W2 Bool) (?X2 Bool) (?Y2 Bool) (?Z2 Bool) )(let (($x509373 (|cp-rel-bb1.i.i| ?E ?F ?G ?H)))
(let (($x354603 (= ?J2 (and ?Z2 ?Y2))))
(let (($x605402 (or (not ?I) (and ?J ?K (not ?L)))))
(let (($x335617 (or (not ?I) ?K)))
(let (($x435054 (not ?M)))
(let (($x850129 (or $x435054 (and ?I ?N (<= ?O ?P) (>= ?O ?P)) (and ?J ?Q ?L (<= ?O ?D) (>= ?O ?D)))))
(let (($x486329 (or $x435054 (and ?N (not ?Q)) (and ?Q (not ?N)))))
(let (($x281039 (or (not ?R) (and ?M ?S (not ?T)))))
(let (($x428002 (or (not ?R) ?S)))
(let (($x430974 (not ?U)))
(let (($x900405 (or $x430974 (and ?R ?V (<= ?W ?X) (>= ?W ?X)) (and ?M ?Y ?T (<= ?W ?C) (>= ?W ?C)))))
(let (($x381025 (or $x430974 (and ?V (not ?Y)) (and ?Y (not ?V)))))
(let (($x186326 (or (not ?Z) (and ?U ?A1 ?B1))))
(let (($x295307 (or (not ?Z) ?A1)))
(let (($x486419 (not ?C1)))
(let (($x537884 (or $x486419 (and ?Z ?D1 ?E1 (<= ?F1 ?A) (>= ?F1 ?A)) (and ?U ?G1 (not ?B1) (<= ?F1 1.0) (>= ?F1 1.0)))))
(let (($x604773 (or $x486419 (and ?D1 (not ?G1)) (and ?G1 (not ?D1)))))
(let (($x621276 (or (not ?H1) (and ?C1 ?I1 (not ?J1)))))
(let (($x126457 (or (not ?H1) ?I1)))
(let (($x595798 (or (not ?K1) (and ?H1 ?L1 (<= ?M1 ?N1) (>= ?M1 ?N1)) (and ?C1 ?O1 ?J1 (<= ?M1 ?O) (>= ?M1 ?O)))))
(let (($x401398 (or (not ?K1) (and ?L1 (not ?O1)) (and ?O1 (not ?L1)))))
(let (($x853247 (or (not ?P1) (and ?K1 ?Q1 (not ?R1)))))
(let (($x296633 (or (not ?P1) ?Q1)))
(let (($x546912 (or (not ?S1) (and ?P1 ?T1 ?J1))))
(let (($x253808 (or (not ?S1) ?T1)))
(let (($x422023 (or (not ?U1) (and ?P1 ?V1 (not ?J1)))))
(let (($x331423 (or (not ?U1) ?V1)))
(let (($x862660 (or (not ?W1) (and ?U1 ?X1 ?Y1))))
(let (($x452504 (or (not ?W1) ?X1)))
(let (($x80486 (and ?Z ?I2 (not ?E1) (<= ?B2 0.0) (>= ?B2 0.0) (<= ?C2 ?O) (>= ?C2 ?O) (<= ?D2 0.0) (>= ?D2 0.0))))
(let (($x173446 (>= ?C2 ?M1)))
(let (($x428047 (<= ?C2 ?M1)))
(let (($x405251 (>= ?B2 ?F1)))
(let (($x322063 (<= ?B2 ?F1)))
(let (($x345228 (and ?K1 ?H2 ?R1 $x322063 $x405251 $x428047 $x173446 (<= ?D2 ?B) (>= ?D2 ?B))))
(let (($x813354 (and ?U1 ?G2 (not ?Y1) $x322063 $x405251 $x428047 $x173446 (<= ?D2 0.0) (>= ?D2 0.0))))
(let (($x135354 (not ?Z1)))
(let (($x364524 (or $x135354 (and ?S1 ?A2 $x322063 $x405251 $x428047 $x173446 (<= ?D2 ?E2) (>= ?D2 ?E2)) (and ?W1 ?F2 $x322063 $x405251 $x428047 $x173446 (<= ?D2 ?B) (>= ?D2 ?B)) $x813354 $x345228 $x80486)))
(let (($x713903 (or $x135354 (and ?A2 (not ?F2) (not ?G2) (not ?H2) (not ?I2)) (and ?F2 (not ?A2) (not ?G2) (not ?H2) (not ?I2)) (and ?G2 (not ?A2) (not ?F2) (not ?H2) (not ?I2)) (and ?H2 (not ?A2) (not ?F2) (not ?G2) (not ?I2)) (and ?I2 (not ?A2) (not ?F2) (not ?G2) (not ?H2)))))
(let (($x306294 (= ?Z1 true)))
(let (($x396616 (= ?L (= ?K2 0.0))))
(let (($x868497 (= ?M2 (ite ?L2 1.0 0.0))))
(let (($x549001 (= ?T (= ?N2 0.0))))
(let (($x222905 (= ?X (ite ?O2 1.0 0.0))))
(let (($x628866 (= ?B1 (= ?P2 0.0))))
(let (($x327920 (= ?E1 (= ?Q2 0.0))))
(let (($x29066 (= ?R2 (not (<= ?O 0.0)))))
(let (($x909377 (= ?S2 (+ (~ 1.0) ?O))))
(let (($x128610 (= ?N1 (ite ?R2 ?S2 ?O))))
(let (($x412307 (= ?R1 (= ?F1 0.0))))
(let (($x837190 (= ?T2 (not (<= ?M1 1.0)))))
(let (($x154424 (= ?U2 (= ?W 0.0))))
(let (($x59250 (= ?V2 (= ?M1 0.0))))
(let (($x509533 (= ?Y1 (and ?U2 ?V2))))
(let (($x861313 (= ?W2 (= ?W 0.0))))
(let (($x96112 (= ?X2 (= ?C2 2.0))))
(let (($x581954 (= ?Y2 (= ?D2 0.0))))
(let (($x339814 (= ?Z2 (and ?X2 ?W2))))
(let (($x311655 (and (|cp-rel-bb1.i.i| ?A ?B ?C ?D) $x339814 $x581954 $x96112 $x861313 $x509533 $x59250 $x154424 (= ?E2 (ite ?T2 1.0 ?B)) $x837190 $x412307 $x128610 $x909377 $x29066 (= ?J1 (= ?B 0.0)) $x327920 $x628866 $x222905 (= ?O2 (= ?C 0.0)) $x549001 (= ?P (+ ?M2 ?D)) $x868497 (= ?L2 (not (<= 2.0 ?D))) $x396616 (>= ?H ?C2) (<= ?H ?C2) (>= ?G ?W) (<= ?G ?W) (>= ?F ?D2) (<= ?F ?D2) (>= ?E ?B2) (<= ?E ?B2) (not (= ?J2 true)) $x306294 $x713903 $x364524 $x452504 $x862660 $x331423 $x422023 $x253808 $x546912 $x296633 $x853247 $x401398 $x595798 $x126457 $x621276 $x604773 $x537884 $x295307 $x186326 $x381025 $x900405 $x428002 $x281039 $x486329 $x850129 $x335617 $x605402 $x354603)))
(=> $x311655 $x509373)))))))))))))))))))))))))))))))))))))))))))))))))))))))))))))
)
(assert (forall ((?A Real) (?B Real) (?C Real) (?D Real) (?E Bool) (?F Bool) (?G Bool) (?H Bool) (?I Bool) (?J Bool) (?K Real) (?L Real) (?M Bool) (?N Bool) (?O Bool) (?P Bool) (?Q Bool) (?R Bool) (?S Real) (?T Real) (?U Bool) (?V Bool) (?W Bool) (?X Bool) (?Y Bool) (?Z Bool) (?A1 Bool) (?B1 Real) (?C1 Bool) (?D1 Bool) (?E1 Bool) (?F1 Bool) (?G1 Bool) (?H1 Bool) (?I1 Real) (?J1 Real) (?K1 Bool) (?L1 Bool) (?M1 Bool) (?N1 Bool) (?O1 Bool) (?P1 Bool) (?Q1 Bool) (?R1 Bool) (?S1 Bool) (?T1 Bool) (?U1 Bool) (?V1 Bool) (?W1 Bool) (?X1 Real) (?Y1 Real) (?Z1 Real) (?A2 Real) (?B2 Bool) (?C2 Bool) (?D2 Bool) (?E2 Bool) (?F2 Bool) (?G2 Real) (?H2 Bool) (?I2 Real) (?J2 Real) (?K2 Bool) (?L2 Real) (?M2 Real) (?N2 Bool) (?O2 Real) (?P2 Bool) (?Q2 Bool) (?R2 Bool) (?S2 Bool) (?T2 Bool) (?U2 Bool) (?V2 Bool) )(let (($x354603 (= ?F2 (and ?V2 ?U2))))
(let (($x605402 (or (not ?E) (and ?F ?G (not ?H)))))
(let (($x335617 (or (not ?E) ?G)))
(let (($x435054 (not ?I)))
(let (($x228617 (or $x435054 (and ?E ?J (<= ?K ?L) (>= ?K ?L)) (and ?F ?M ?H (<= ?K ?D) (>= ?K ?D)))))
(let (($x486329 (or $x435054 (and ?J (not ?M)) (and ?M (not ?J)))))
(let (($x281039 (or (not ?N) (and ?I ?O (not ?P)))))
(let (($x428002 (or (not ?N) ?O)))
(let (($x430974 (not ?Q)))
(let (($x359325 (or $x430974 (and ?N ?R (<= ?S ?T) (>= ?S ?T)) (and ?I ?U ?P (<= ?S ?C) (>= ?S ?C)))))
(let (($x381025 (or $x430974 (and ?R (not ?U)) (and ?U (not ?R)))))
(let (($x186326 (or (not ?V) (and ?Q ?W ?X))))
(let (($x295307 (or (not ?V) ?W)))
(let (($x486419 (not ?Y)))
(let (($x355930 (or $x486419 (and ?V ?Z ?A1 (<= ?B1 ?A) (>= ?B1 ?A)) (and ?Q ?C1 (not ?X) (<= ?B1 1.0) (>= ?B1 1.0)))))
(let (($x604773 (or $x486419 (and ?Z (not ?C1)) (and ?C1 (not ?Z)))))
(let (($x621276 (or (not ?D1) (and ?Y ?E1 (not ?F1)))))
(let (($x126457 (or (not ?D1) ?E1)))
(let (($x595798 (or (not ?G1) (and ?D1 ?H1 (<= ?I1 ?J1) (>= ?I1 ?J1)) (and ?Y ?K1 ?F1 (<= ?I1 ?K) (>= ?I1 ?K)))))
(let (($x401398 (or (not ?G1) (and ?H1 (not ?K1)) (and ?K1 (not ?H1)))))
(let (($x853247 (or (not ?L1) (and ?G1 ?M1 (not ?N1)))))
(let (($x296633 (or (not ?L1) ?M1)))
(let (($x546912 (or (not ?O1) (and ?L1 ?P1 ?F1))))
(let (($x253808 (or (not ?O1) ?P1)))
(let (($x422023 (or (not ?Q1) (and ?L1 ?R1 (not ?F1)))))
(let (($x331423 (or (not ?Q1) ?R1)))
(let (($x862660 (or (not ?S1) (and ?Q1 ?T1 ?U1))))
(let (($x452504 (or (not ?S1) ?T1)))
(let (($x80486 (and ?V ?E2 (not ?A1) (<= ?X1 0.0) (>= ?X1 0.0) (<= ?Y1 ?K) (>= ?Y1 ?K) (<= ?Z1 0.0) (>= ?Z1 0.0))))
(let (($x173446 (>= ?Y1 ?I1)))
(let (($x428047 (<= ?Y1 ?I1)))
(let (($x405251 (>= ?X1 ?B1)))
(let (($x322063 (<= ?X1 ?B1)))
(let (($x230019 (and ?G1 ?D2 ?N1 $x322063 $x405251 $x428047 $x173446 (<= ?Z1 ?B) (>= ?Z1 ?B))))
(let (($x813354 (and ?Q1 ?C2 (not ?U1) $x322063 $x405251 $x428047 $x173446 (<= ?Z1 0.0) (>= ?Z1 0.0))))
(let (($x135354 (not ?V1)))
(let (($x298485 (or $x135354 (and ?O1 ?W1 $x322063 $x405251 $x428047 $x173446 (<= ?Z1 ?A2) (>= ?Z1 ?A2)) (and ?S1 ?B2 $x322063 $x405251 $x428047 $x173446 (<= ?Z1 ?B) (>= ?Z1 ?B)) $x813354 $x230019 $x80486)))
(let (($x713903 (or $x135354 (and ?W1 (not ?B2) (not ?C2) (not ?D2) (not ?E2)) (and ?B2 (not ?W1) (not ?C2) (not ?D2) (not ?E2)) (and ?C2 (not ?W1) (not ?B2) (not ?D2) (not ?E2)) (and ?D2 (not ?W1) (not ?B2) (not ?C2) (not ?E2)) (and ?E2 (not ?W1) (not ?B2) (not ?C2) (not ?D2)))))
(let (($x306294 (= ?V1 true)))
(let (($x864696 (= ?F2 true)))
(let (($x396616 (= ?H (= ?G2 0.0))))
(let (($x868497 (= ?I2 (ite ?H2 1.0 0.0))))
(let (($x549001 (= ?P (= ?J2 0.0))))
(let (($x222905 (= ?T (ite ?K2 1.0 0.0))))
(let (($x628866 (= ?X (= ?L2 0.0))))
(let (($x327920 (= ?A1 (= ?M2 0.0))))
(let (($x29066 (= ?N2 (not (<= ?K 0.0)))))
(let (($x909377 (= ?O2 (+ (~ 1.0) ?K))))
(let (($x128610 (= ?J1 (ite ?N2 ?O2 ?K))))
(let (($x412307 (= ?N1 (= ?B1 0.0))))
(let (($x837190 (= ?P2 (not (<= ?I1 1.0)))))
(let (($x154424 (= ?Q2 (= ?S 0.0))))
(let (($x59250 (= ?R2 (= ?I1 0.0))))
(let (($x509533 (= ?U1 (and ?Q2 ?R2))))
(let (($x861313 (= ?S2 (= ?S 0.0))))
(let (($x96112 (= ?T2 (= ?Y1 2.0))))
(let (($x581954 (= ?U2 (= ?Z1 0.0))))
(let (($x339814 (= ?V2 (and ?T2 ?S2))))
(let (($x509373 (|cp-rel-bb1.i.i| ?A ?B ?C ?D)))
(let (($x927514 (and $x509373 $x339814 $x581954 $x96112 $x861313 $x509533 $x59250 $x154424 (= ?A2 (ite ?P2 1.0 ?B)) $x837190 $x412307 $x128610 $x909377 $x29066 (= ?F1 (= ?B 0.0)) $x327920 $x628866 $x222905 (= ?K2 (= ?C 0.0)) $x549001 (= ?L (+ ?I2 ?D)) $x868497 (= ?H2 (not (<= 2.0 ?D))) $x396616 $x864696 $x306294 $x713903 $x298485 $x452504 $x862660 $x331423 $x422023 $x253808 $x546912 $x296633 $x853247 $x401398 $x595798 $x126457 $x621276 $x604773 $x355930 $x295307 $x186326 $x381025 $x359325 $x428002 $x281039 $x486329 $x228617 $x335617 $x605402 $x354603)))
(=> $x927514 |cp-rel-bb2.i.i35.i.i|))))))))))))))))))))))))))))))))))))))))))))))))))))))))))))))
)
(assert (not cp-rel-bb2.i.i35.i.i))
(check-sat)
